(set-option :produce-models true); benchmark generated from python API
(set-info :status unknown)
(declare-fun l_0_0_2 () Real)
(declare-fun l_0_0_1 () Real)
(declare-fun l_0_1_4 () Real)
(declare-fun l_0_1_3 () Real)
(declare-fun l_0_1_2 () Real)
(declare-fun l_0_1_1 () Real)
(declare-fun l_0_2_6 () Real)
(declare-fun l_0_2_5 () Real)
(declare-fun l_0_2_4 () Real)
(declare-fun l_0_2_3 () Real)
(declare-fun l_0_2_2 () Real)
(declare-fun l_0_2_1 () Real)
(declare-fun l_0_3_1 () Real)
(declare-fun l_0_3_8 () Real)
(declare-fun l_0_3_7 () Real)
(declare-fun l_0_3_6 () Real)
(declare-fun l_0_3_5 () Real)
(declare-fun l_0_3_4 () Real)
(declare-fun l_0_3_3 () Real)
(declare-fun l_0_3_2 () Real)
(declare-fun l_0_4_1 () Real)
(declare-fun l_0_4_9 () Real)
(declare-fun l_0_4_8 () Real)
(declare-fun l_0_4_7 () Real)
(declare-fun l_0_4_6 () Real)
(declare-fun l_0_4_5 () Real)
(declare-fun l_0_4_4 () Real)
(declare-fun l_0_4_3 () Real)
(declare-fun l_0_4_2 () Real)
(declare-fun l_0_4_10 () Real)
(declare-fun l_0_5_1 () Real)
(declare-fun l_0_5_9 () Real)
(declare-fun l_0_5_8 () Real)
(declare-fun l_0_5_7 () Real)
(declare-fun l_0_5_6 () Real)
(declare-fun l_0_5_5 () Real)
(declare-fun l_0_5_4 () Real)
(declare-fun l_0_5_3 () Real)
(declare-fun l_0_5_2 () Real)
(declare-fun l_0_5_12 () Real)
(declare-fun l_0_5_11 () Real)
(declare-fun l_0_5_10 () Real)
(declare-fun l_0_6_8 () Real)
(declare-fun l_0_6_7 () Real)
(declare-fun l_0_6_6 () Real)
(declare-fun l_0_6_5 () Real)
(declare-fun l_0_6_1 () Real)
(declare-fun l_0_6_2 () Real)
(declare-fun l_0_6_3 () Real)
(declare-fun l_0_6_4 () Real)
(declare-fun l_0_7_9 () Real)
(declare-fun l_0_7_8 () Real)
(declare-fun l_0_7_7 () Real)
(declare-fun l_0_7_6 () Real)
(declare-fun l_0_7_5 () Real)
(declare-fun l_0_7_1 () Real)
(declare-fun l_0_7_2 () Real)
(declare-fun l_0_7_3 () Real)
(declare-fun l_0_7_4 () Real)
(declare-fun l_0_8_9 () Real)
(declare-fun l_0_8_8 () Real)
(declare-fun l_0_8_7 () Real)
(declare-fun l_0_8_11 () Real)
(declare-fun l_0_8_10 () Real)
(declare-fun _a_0_ () Real)
(declare-fun l_0_8_6 () Real)
(declare-fun l_0_8_5 () Real)
(declare-fun l_0_8_3 () Real)
(declare-fun _a_1_ () Real)
(declare-fun l_0_8_4 () Real)
(declare-fun _a_2_ () Real)
(declare-fun l_0_8_2 () Real)
(declare-fun _a_3_ () Real)
(declare-fun l_0_8_1 () Real)
(declare-fun _a_4_ () Real)
(declare-fun l_0_9_9 () Real)
(declare-fun l_0_9_8 () Real)
(declare-fun l_0_9_7 () Real)
(declare-fun l_0_9_13 () Real)
(declare-fun l_0_9_12 () Real)
(declare-fun l_0_9_11 () Real)
(declare-fun l_0_9_10 () Real)
(declare-fun l_0_9_6 () Real)
(declare-fun l_0_9_5 () Real)
(declare-fun l_0_9_1 () Real)
(declare-fun l_0_9_2 () Real)
(declare-fun l_0_9_3 () Real)
(declare-fun l_0_9_4 () Real)
(declare-fun l_0_10_8 () Real)
(declare-fun l_0_10_6 () Real)
(declare-fun l_0_10_5 () Real)
(declare-fun l_0_10_4 () Real)
(declare-fun l_0_10_9 () Real)
(declare-fun l_0_10_7 () Real)
(declare-fun l_0_10_15 () Real)
(declare-fun l_0_10_14 () Real)
(declare-fun l_0_10_13 () Real)
(declare-fun l_0_10_12 () Real)
(declare-fun l_0_10_11 () Real)
(declare-fun l_0_10_10 () Real)
(declare-fun l_0_10_1 () Real)
(declare-fun l_0_10_2 () Real)
(declare-fun l_0_10_3 () Real)
(declare-fun l_0_11_6 () Real)
(declare-fun l_0_11_5 () Real)
(declare-fun l_0_11_9 () Real)
(declare-fun l_0_11_8 () Real)
(declare-fun l_0_11_7 () Real)
(declare-fun l_0_11_17 () Real)
(declare-fun l_0_11_16 () Real)
(declare-fun l_0_11_15 () Real)
(declare-fun l_0_11_14 () Real)
(declare-fun l_0_11_13 () Real)
(declare-fun l_0_11_12 () Real)
(declare-fun l_0_11_11 () Real)
(declare-fun l_0_11_10 () Real)
(declare-fun l_0_11_3 () Real)
(declare-fun l_0_11_4 () Real)
(declare-fun l_0_11_2 () Real)
(declare-fun l_0_11_1 () Real)
(declare-fun l_0_12_9 () Real)
(declare-fun l_0_12_8 () Real)
(declare-fun l_0_12_7 () Real)
(declare-fun l_0_12_19 () Real)
(declare-fun l_0_12_18 () Real)
(declare-fun l_0_12_17 () Real)
(declare-fun l_0_12_16 () Real)
(declare-fun l_0_12_15 () Real)
(declare-fun l_0_12_14 () Real)
(declare-fun l_0_12_13 () Real)
(declare-fun l_0_12_12 () Real)
(declare-fun l_0_12_11 () Real)
(declare-fun l_0_12_10 () Real)
(declare-fun l_0_12_6 () Real)
(declare-fun l_0_12_5 () Real)
(declare-fun l_0_12_3 () Real)
(declare-fun l_0_12_4 () Real)
(declare-fun l_0_12_2 () Real)
(declare-fun l_0_12_1 () Real)
(declare-fun l_0_13_8 () Real)
(declare-fun l_0_13_6 () Real)
(declare-fun l_0_13_5 () Real)
(declare-fun l_0_13_1 () Real)
(declare-fun l_0_13_9 () Real)
(declare-fun l_0_13_7 () Real)
(declare-fun l_0_13_2 () Real)
(declare-fun l_0_13_3 () Real)
(declare-fun l_0_13_4 () Real)
(declare-fun l_0_14_6 () Real)
(declare-fun l_0_14_5 () Real)
(declare-fun l_0_14_2 () Real)
(declare-fun l_0_14_9 () Real)
(declare-fun l_0_14_8 () Real)
(declare-fun l_0_14_7 () Real)
(declare-fun l_0_14_11 () Real)
(declare-fun l_0_14_10 () Real)
(declare-fun l_0_14_1 () Real)
(declare-fun l_0_14_3 () Real)
(declare-fun l_0_14_4 () Real)
(declare-fun l_0_15_6 () Real)
(declare-fun l_0_15_5 () Real)
(declare-fun l_0_15_3 () Real)
(declare-fun l_0_15_9 () Real)
(declare-fun l_0_15_8 () Real)
(declare-fun l_0_15_7 () Real)
(declare-fun l_0_15_13 () Real)
(declare-fun l_0_15_12 () Real)
(declare-fun l_0_15_11 () Real)
(declare-fun l_0_15_10 () Real)
(declare-fun l_0_15_1 () Real)
(declare-fun l_0_15_2 () Real)
(declare-fun l_0_15_4 () Real)
(declare-fun l_0_16_6 () Real)
(declare-fun l_0_16_5 () Real)
(declare-fun l_0_16_4 () Real)
(declare-fun l_0_16_9 () Real)
(declare-fun l_0_16_8 () Real)
(declare-fun l_0_16_7 () Real)
(declare-fun l_0_16_15 () Real)
(declare-fun l_0_16_14 () Real)
(declare-fun l_0_16_13 () Real)
(declare-fun l_0_16_12 () Real)
(declare-fun l_0_16_11 () Real)
(declare-fun l_0_16_10 () Real)
(declare-fun l_0_16_1 () Real)
(declare-fun l_0_16_2 () Real)
(declare-fun l_0_16_3 () Real)
(declare-fun l_0_17_6 () Real)
(declare-fun l_0_17_5 () Real)
(declare-fun l_0_17_3 () Real)
(declare-fun l_0_17_9 () Real)
(declare-fun l_0_17_8 () Real)
(declare-fun l_0_17_7 () Real)
(declare-fun l_0_17_17 () Real)
(declare-fun l_0_17_16 () Real)
(declare-fun l_0_17_15 () Real)
(declare-fun l_0_17_14 () Real)
(declare-fun l_0_17_13 () Real)
(declare-fun l_0_17_12 () Real)
(declare-fun l_0_17_11 () Real)
(declare-fun l_0_17_10 () Real)
(declare-fun l_0_17_2 () Real)
(declare-fun l_0_17_1 () Real)
(declare-fun l_0_17_4 () Real)
(declare-fun l_0_18_6 () Real)
(declare-fun l_0_18_5 () Real)
(declare-fun l_0_18_3 () Real)
(declare-fun l_0_18_9 () Real)
(declare-fun l_0_18_8 () Real)
(declare-fun l_0_18_7 () Real)
(declare-fun l_0_18_19 () Real)
(declare-fun l_0_18_18 () Real)
(declare-fun l_0_18_17 () Real)
(declare-fun l_0_18_16 () Real)
(declare-fun l_0_18_15 () Real)
(declare-fun l_0_18_14 () Real)
(declare-fun l_0_18_13 () Real)
(declare-fun l_0_18_12 () Real)
(declare-fun l_0_18_11 () Real)
(declare-fun l_0_18_10 () Real)
(declare-fun l_0_18_2 () Real)
(declare-fun l_0_18_1 () Real)
(declare-fun l_0_18_4 () Real)
(declare-fun l_0_19_9 () Real)
(declare-fun l_0_19_8 () Real)
(declare-fun l_0_19_7 () Real)
(declare-fun l_0_19_6 () Real)
(declare-fun l_0_19_5 () Real)
(declare-fun l_0_19_1 () Real)
(declare-fun l_0_19_2 () Real)
(declare-fun l_0_19_3 () Real)
(declare-fun l_0_19_4 () Real)
(declare-fun l_0_20_9 () Real)
(declare-fun l_0_20_8 () Real)
(declare-fun l_0_20_7 () Real)
(declare-fun l_0_20_11 () Real)
(declare-fun l_0_20_10 () Real)
(declare-fun l_0_20_6 () Real)
(declare-fun l_0_20_5 () Real)
(declare-fun l_0_20_1 () Real)
(declare-fun l_0_20_2 () Real)
(declare-fun l_0_20_3 () Real)
(declare-fun l_0_20_4 () Real)
(declare-fun l_0_21_9 () Real)
(declare-fun l_0_21_8 () Real)
(declare-fun l_0_21_7 () Real)
(declare-fun l_0_21_13 () Real)
(declare-fun l_0_21_12 () Real)
(declare-fun l_0_21_11 () Real)
(declare-fun l_0_21_10 () Real)
(declare-fun l_0_21_6 () Real)
(declare-fun l_0_21_5 () Real)
(declare-fun l_0_21_1 () Real)
(declare-fun l_0_21_2 () Real)
(declare-fun l_0_21_3 () Real)
(declare-fun l_0_21_4 () Real)
(declare-fun l_0_22_9 () Real)
(declare-fun l_0_22_8 () Real)
(declare-fun l_0_22_7 () Real)
(declare-fun l_0_22_15 () Real)
(declare-fun l_0_22_14 () Real)
(declare-fun l_0_22_13 () Real)
(declare-fun l_0_22_12 () Real)
(declare-fun l_0_22_11 () Real)
(declare-fun l_0_22_10 () Real)
(declare-fun _a_5_ () Real)
(declare-fun l_0_22_6 () Real)
(declare-fun l_0_22_5 () Real)
(declare-fun l_0_22_3 () Real)
(declare-fun _a_6_ () Real)
(declare-fun l_0_22_4 () Real)
(declare-fun _a_7_ () Real)
(declare-fun l_0_22_2 () Real)
(declare-fun _a_8_ () Real)
(declare-fun l_0_22_1 () Real)
(declare-fun _a_9_ () Real)
(declare-fun l_0_23_6 () Real)
(declare-fun l_0_23_5 () Real)
(declare-fun l_0_23_9 () Real)
(declare-fun l_0_23_8 () Real)
(declare-fun l_0_23_7 () Real)
(declare-fun l_0_23_17 () Real)
(declare-fun l_0_23_16 () Real)
(declare-fun l_0_23_15 () Real)
(declare-fun l_0_23_14 () Real)
(declare-fun l_0_23_13 () Real)
(declare-fun l_0_23_12 () Real)
(declare-fun l_0_23_11 () Real)
(declare-fun l_0_23_10 () Real)
(declare-fun l_0_23_3 () Real)
(declare-fun l_0_23_4 () Real)
(declare-fun l_0_23_2 () Real)
(declare-fun l_0_23_1 () Real)
(declare-fun l_0_24_9 () Real)
(declare-fun l_0_24_8 () Real)
(declare-fun l_0_24_7 () Real)
(declare-fun l_0_24_19 () Real)
(declare-fun l_0_24_18 () Real)
(declare-fun l_0_24_17 () Real)
(declare-fun l_0_24_16 () Real)
(declare-fun l_0_24_15 () Real)
(declare-fun l_0_24_14 () Real)
(declare-fun l_0_24_13 () Real)
(declare-fun l_0_24_12 () Real)
(declare-fun l_0_24_11 () Real)
(declare-fun l_0_24_10 () Real)
(declare-fun l_0_24_6 () Real)
(declare-fun l_0_24_5 () Real)
(declare-fun l_0_24_3 () Real)
(declare-fun l_0_24_4 () Real)
(declare-fun l_0_24_2 () Real)
(declare-fun l_0_24_1 () Real)
(declare-fun l_0_25_9 () Real)
(declare-fun l_0_25_8 () Real)
(declare-fun l_0_25_7 () Real)
(declare-fun l_0_25_6 () Real)
(declare-fun l_0_25_5 () Real)
(declare-fun l_0_25_1 () Real)
(declare-fun l_0_25_2 () Real)
(declare-fun l_0_25_3 () Real)
(declare-fun l_0_25_4 () Real)
(declare-fun l_0_26_9 () Real)
(declare-fun l_0_26_8 () Real)
(declare-fun l_0_26_7 () Real)
(declare-fun l_0_26_11 () Real)
(declare-fun l_0_26_10 () Real)
(declare-fun l_0_26_6 () Real)
(declare-fun l_0_26_5 () Real)
(declare-fun l_0_26_1 () Real)
(declare-fun l_0_26_2 () Real)
(declare-fun l_0_26_3 () Real)
(declare-fun l_0_26_4 () Real)
(declare-fun l_0_27_9 () Real)
(declare-fun l_0_27_8 () Real)
(declare-fun l_0_27_7 () Real)
(declare-fun l_0_27_13 () Real)
(declare-fun l_0_27_12 () Real)
(declare-fun l_0_27_11 () Real)
(declare-fun l_0_27_10 () Real)
(declare-fun l_0_27_6 () Real)
(declare-fun l_0_27_5 () Real)
(declare-fun l_0_27_1 () Real)
(declare-fun l_0_27_2 () Real)
(declare-fun l_0_27_3 () Real)
(declare-fun l_0_27_4 () Real)
(declare-fun l_0_28_9 () Real)
(declare-fun l_0_28_8 () Real)
(declare-fun l_0_28_7 () Real)
(declare-fun l_0_28_15 () Real)
(declare-fun l_0_28_14 () Real)
(declare-fun l_0_28_13 () Real)
(declare-fun l_0_28_12 () Real)
(declare-fun l_0_28_11 () Real)
(declare-fun l_0_28_10 () Real)
(declare-fun _a_10_ () Real)
(declare-fun l_0_28_6 () Real)
(declare-fun l_0_28_5 () Real)
(declare-fun l_0_28_3 () Real)
(declare-fun _a_11_ () Real)
(declare-fun l_0_28_4 () Real)
(declare-fun _a_12_ () Real)
(declare-fun l_0_28_2 () Real)
(declare-fun _a_13_ () Real)
(declare-fun l_0_28_1 () Real)
(declare-fun _a_14_ () Real)
(declare-fun l_0_29_6 () Real)
(declare-fun l_0_29_5 () Real)
(declare-fun l_0_29_9 () Real)
(declare-fun l_0_29_8 () Real)
(declare-fun l_0_29_7 () Real)
(declare-fun l_0_29_17 () Real)
(declare-fun l_0_29_16 () Real)
(declare-fun l_0_29_15 () Real)
(declare-fun l_0_29_14 () Real)
(declare-fun l_0_29_13 () Real)
(declare-fun l_0_29_12 () Real)
(declare-fun l_0_29_11 () Real)
(declare-fun l_0_29_10 () Real)
(declare-fun l_0_29_3 () Real)
(declare-fun l_0_29_4 () Real)
(declare-fun l_0_29_2 () Real)
(declare-fun l_0_29_1 () Real)
(declare-fun l_0_30_9 () Real)
(declare-fun l_0_30_8 () Real)
(declare-fun l_0_30_7 () Real)
(declare-fun l_0_30_19 () Real)
(declare-fun l_0_30_18 () Real)
(declare-fun l_0_30_17 () Real)
(declare-fun l_0_30_16 () Real)
(declare-fun l_0_30_15 () Real)
(declare-fun l_0_30_14 () Real)
(declare-fun l_0_30_13 () Real)
(declare-fun l_0_30_12 () Real)
(declare-fun l_0_30_11 () Real)
(declare-fun l_0_30_10 () Real)
(declare-fun l_0_30_6 () Real)
(declare-fun l_0_30_5 () Real)
(declare-fun l_0_30_3 () Real)
(declare-fun l_0_30_4 () Real)
(declare-fun l_0_30_2 () Real)
(declare-fun l_0_30_1 () Real)
(assert
 (= (- (* 1.0 l_0_0_1) l_0_0_2) 0.0))
(assert
 (= (- l_0_0_1) 0.0))
(assert
 (>= l_0_0_1 0.0))
(assert
 (>= l_0_0_2 0.0))
(assert
 (= (- (- (- (* 1.0 l_0_1_1) l_0_1_2) l_0_1_3) l_0_1_4) 0.0))
(assert
 (= (- l_0_1_1) 0.0))
(assert
 (>= l_0_1_1 0.0))
(assert
 (>= l_0_1_2 0.0))
(assert
 (>= l_0_1_3 0.0))
(assert
 (>= l_0_1_4 0.0))
(assert
 (let ((?x465 (- (- (- (- (* 1.0 l_0_2_1) l_0_2_2) l_0_2_3) l_0_2_4) l_0_2_5)))
 (= (- ?x465 l_0_2_6) 0.0)))
(assert
 (= (- l_0_2_1) 0.0))
(assert
 (>= l_0_2_1 0.0))
(assert
 (>= l_0_2_2 0.0))
(assert
 (>= l_0_2_3 0.0))
(assert
 (>= l_0_2_4 0.0))
(assert
 (>= l_0_2_5 0.0))
(assert
 (>= l_0_2_6 0.0))
(assert
 (= (- 1.0 l_0_3_1) 0.0))
(assert
 (let ((?x502 (- (- (- (- (* 1.0 l_0_3_1) l_0_3_2) l_0_3_3) l_0_3_4) l_0_3_5)))
 (= (- (- (- ?x502 l_0_3_6) l_0_3_7) l_0_3_8) 0.0)))
(assert
 (>= l_0_3_1 0.0))
(assert
 (>= l_0_3_2 0.0))
(assert
 (>= l_0_3_3 0.0))
(assert
 (>= l_0_3_4 0.0))
(assert
 (>= l_0_3_5 0.0))
(assert
 (>= l_0_3_6 0.0))
(assert
 (>= l_0_3_7 0.0))
(assert
 (>= l_0_3_8 0.0))
(assert
 (= (- l_0_4_1) 0.0))
(assert
 (let ((?x544 (- (- (- (- (* 1.0 l_0_4_1) l_0_4_10) l_0_4_2) l_0_4_3) l_0_4_4)))
 (let ((?x549 (- (- (- (- (- ?x544 l_0_4_5) l_0_4_6) l_0_4_7) l_0_4_8) l_0_4_9)))
 (= ?x549 0.0))))
(assert
 (>= l_0_4_1 0.0))
(assert
 (>= l_0_4_2 0.0))
(assert
 (>= l_0_4_3 0.0))
(assert
 (>= l_0_4_4 0.0))
(assert
 (>= l_0_4_5 0.0))
(assert
 (>= l_0_4_6 0.0))
(assert
 (>= l_0_4_7 0.0))
(assert
 (>= l_0_4_8 0.0))
(assert
 (>= l_0_4_9 0.0))
(assert
 (>= l_0_4_10 0.0))
(assert
 (= (- l_0_5_1) 0.0))
(assert
 (let ((?x596 (- (- (- (- (* 1.0 l_0_5_1) l_0_5_10) l_0_5_11) l_0_5_12) l_0_5_2)))
 (let ((?x601 (- (- (- (- (- ?x596 l_0_5_3) l_0_5_4) l_0_5_5) l_0_5_6) l_0_5_7)))
 (= (- (- ?x601 l_0_5_8) l_0_5_9) 0.0))))
(assert
 (>= l_0_5_1 0.0))
(assert
 (>= l_0_5_2 0.0))
(assert
 (>= l_0_5_3 0.0))
(assert
 (>= l_0_5_4 0.0))
(assert
 (>= l_0_5_5 0.0))
(assert
 (>= l_0_5_6 0.0))
(assert
 (>= l_0_5_7 0.0))
(assert
 (>= l_0_5_8 0.0))
(assert
 (>= l_0_5_9 0.0))
(assert
 (>= l_0_5_10 0.0))
(assert
 (>= l_0_5_11 0.0))
(assert
 (>= l_0_5_12 0.0))
(assert
 (= (+ (- (* 1.0 l_0_6_7) l_0_6_8) 1.0) 0.0))
(assert
 (= (- (+ (- l_0_6_1) l_0_6_5) l_0_6_6) 0.0))
(assert
 (= (- (+ (- l_0_6_2) l_0_6_5) l_0_6_6) 0.0))
(assert
 (= (- (+ (- l_0_6_3) l_0_6_5) l_0_6_6) 0.0))
(assert
 (= (- (+ (- l_0_6_4) l_0_6_5) l_0_6_6) 0.0))
(assert
 (= (+ (- l_0_6_5) l_0_6_6) 0.0))
(assert
 (>= l_0_6_1 0.0))
(assert
 (>= l_0_6_2 0.0))
(assert
 (>= l_0_6_3 0.0))
(assert
 (>= l_0_6_4 0.0))
(assert
 (>= l_0_6_5 0.0))
(assert
 (>= l_0_6_6 0.0))
(assert
 (>= l_0_6_7 0.0))
(assert
 (>= l_0_6_8 0.0))
(assert
 (= (- (+ (* (- 1.0) l_0_7_7) (* 1.0 l_0_7_8)) l_0_7_9) 0.0))
(assert
 (= (- (+ (- l_0_7_1) l_0_7_5) l_0_7_6) 0.0))
(assert
 (= (- (+ (- l_0_7_2) l_0_7_5) l_0_7_6) 0.0))
(assert
 (= (- (+ (- l_0_7_3) l_0_7_5) l_0_7_6) 0.0))
(assert
 (= (- (- (+ (- l_0_7_4) l_0_7_5) l_0_7_6) l_0_7_8) 0.0))
(assert
 (= (+ (- l_0_7_5) l_0_7_6) 0.0))
(assert
 (>= l_0_7_1 0.0))
(assert
 (>= l_0_7_2 0.0))
(assert
 (>= l_0_7_3 0.0))
(assert
 (>= l_0_7_4 0.0))
(assert
 (>= l_0_7_5 0.0))
(assert
 (>= l_0_7_6 0.0))
(assert
 (>= l_0_7_7 0.0))
(assert
 (>= l_0_7_8 0.0))
(assert
 (>= l_0_7_9 0.0))
(assert
 (let ((?x788 (+ (- (- (- _a_0_ l_0_8_10) l_0_8_11) (* 1.0 l_0_8_7)) (* 1.0 l_0_8_8))))
 (= (- ?x788 l_0_8_9) 0.0)))
(assert
 (= (- (+ (- _a_1_ l_0_8_3) l_0_8_5) l_0_8_6) 0.0))
(assert
 (= (- (- (+ (- _a_2_ l_0_8_4) l_0_8_5) l_0_8_6) l_0_8_8) 0.0))
(assert
 (= (- (+ (- _a_3_ l_0_8_2) l_0_8_5) l_0_8_6) 0.0))
(assert
 (= (- (+ (- _a_4_ l_0_8_1) l_0_8_5) l_0_8_6) 0.0))
(assert
 (= (+ (- l_0_8_5) l_0_8_6) 0.0))
(assert
 (>= l_0_8_1 0.0))
(assert
 (>= l_0_8_2 0.0))
(assert
 (>= l_0_8_3 0.0))
(assert
 (>= l_0_8_4 0.0))
(assert
 (>= l_0_8_5 0.0))
(assert
 (>= l_0_8_6 0.0))
(assert
 (>= l_0_8_7 0.0))
(assert
 (>= l_0_8_8 0.0))
(assert
 (>= l_0_8_9 0.0))
(assert
 (>= l_0_8_10 0.0))
(assert
 (>= l_0_8_11 0.0))
(assert
 (let ((?x871 (- (- (- (- (- l_0_9_10) l_0_9_11) l_0_9_12) l_0_9_13) (* 1.0 l_0_9_7))))
 (= (- (+ ?x871 (* 1.0 l_0_9_8)) l_0_9_9) 0.0)))
(assert
 (= (- (+ (- l_0_9_1) l_0_9_5) l_0_9_6) 0.0))
(assert
 (= (- (+ (- l_0_9_2) l_0_9_5) l_0_9_6) 0.0))
(assert
 (= (- (+ (- l_0_9_3) l_0_9_5) l_0_9_6) 0.0))
(assert
 (= (- (- (+ (- l_0_9_4) l_0_9_5) l_0_9_6) l_0_9_8) 0.0))
(assert
 (= (+ (- l_0_9_5) l_0_9_6) 0.0))
(assert
 (>= l_0_9_1 0.0))
(assert
 (>= l_0_9_2 0.0))
(assert
 (>= l_0_9_3 0.0))
(assert
 (>= l_0_9_4 0.0))
(assert
 (>= l_0_9_5 0.0))
(assert
 (>= l_0_9_6 0.0))
(assert
 (>= l_0_9_7 0.0))
(assert
 (>= l_0_9_8 0.0))
(assert
 (>= l_0_9_9 0.0))
(assert
 (>= l_0_9_10 0.0))
(assert
 (>= l_0_9_11 0.0))
(assert
 (>= l_0_9_12 0.0))
(assert
 (>= l_0_9_13 0.0))
(assert
 (= (+ (- (- (+ (- l_0_10_4) l_0_10_5) l_0_10_6) l_0_10_8) 1.0) 0.0))
(assert
 (let ((?x979 (- (- (- (- (- l_0_10_10) l_0_10_11) l_0_10_12) l_0_10_13) l_0_10_14)))
 (let ((?x984 (+ (- (- ?x979 l_0_10_15) (* 1.0 l_0_10_7)) (* 1.0 l_0_10_8))))
 (= (- (- ?x984 l_0_10_9) 1.0) 0.0))))
(assert
 (= (- (+ (- l_0_10_1) l_0_10_5) l_0_10_6) 0.0))
(assert
 (= (- (+ (- l_0_10_2) l_0_10_5) l_0_10_6) 0.0))
(assert
 (= (- (+ (- l_0_10_3) l_0_10_5) l_0_10_6) 0.0))
(assert
 (= (+ (- l_0_10_5) l_0_10_6) 0.0))
(assert
 (>= l_0_10_1 0.0))
(assert
 (>= l_0_10_2 0.0))
(assert
 (>= l_0_10_3 0.0))
(assert
 (>= l_0_10_4 0.0))
(assert
 (>= l_0_10_5 0.0))
(assert
 (>= l_0_10_6 0.0))
(assert
 (>= l_0_10_7 0.0))
(assert
 (>= l_0_10_8 0.0))
(assert
 (>= l_0_10_9 0.0))
(assert
 (>= l_0_10_10 0.0))
(assert
 (>= l_0_10_11 0.0))
(assert
 (>= l_0_10_12 0.0))
(assert
 (>= l_0_10_13 0.0))
(assert
 (>= l_0_10_14 0.0))
(assert
 (>= l_0_10_15 0.0))
(assert
 (= (+ (+ (- l_0_11_5) l_0_11_6) 1.0) 0.0))
(assert
 (let ((?x1077 (- (- (- (- (- _a_0_) l_0_11_10) l_0_11_11) l_0_11_12) l_0_11_13)))
 (let ((?x1083 (- (- (- (- (- ?x1077 l_0_11_14) l_0_11_15) l_0_11_16) l_0_11_17) (* 1.0 l_0_11_7))))
 (= (+ (- (+ ?x1083 (* 1.0 l_0_11_8)) l_0_11_9) 1.0) 0.0))))
(assert
 (= (- (+ (- (- _a_1_) l_0_11_3) l_0_11_5) l_0_11_6) 0.0))
(assert
 (let ((?x1140 (- (- (+ (- (- _a_2_) l_0_11_4) l_0_11_5) l_0_11_6) l_0_11_8)))
 (= (- ?x1140 1.0) 0.0)))
(assert
 (= (- (+ (- (- _a_3_) l_0_11_2) l_0_11_5) l_0_11_6) 0.0))
(assert
 (= (- (+ (- (- _a_4_) l_0_11_1) l_0_11_5) l_0_11_6) 0.0))
(assert
 (>= l_0_11_1 0.0))
(assert
 (>= l_0_11_2 0.0))
(assert
 (>= l_0_11_3 0.0))
(assert
 (>= l_0_11_4 0.0))
(assert
 (>= l_0_11_5 0.0))
(assert
 (>= l_0_11_6 0.0))
(assert
 (>= l_0_11_7 0.0))
(assert
 (>= l_0_11_8 0.0))
(assert
 (>= l_0_11_9 0.0))
(assert
 (>= l_0_11_10 0.0))
(assert
 (>= l_0_11_11 0.0))
(assert
 (>= l_0_11_12 0.0))
(assert
 (>= l_0_11_13 0.0))
(assert
 (>= l_0_11_14 0.0))
(assert
 (>= l_0_11_15 0.0))
(assert
 (>= l_0_11_16 0.0))
(assert
 (>= l_0_11_17 0.0))
(assert
 (let ((?x1202 (- (- (- (- (- _a_0_ l_0_12_10) l_0_12_11) l_0_12_12) l_0_12_13) l_0_12_14)))
 (let ((?x1207 (- (- (- (- (- ?x1202 l_0_12_15) l_0_12_16) l_0_12_17) l_0_12_18) l_0_12_19)))
 (let ((?x1212 (- (+ (- ?x1207 (* 1.0 l_0_12_7)) (* 1.0 l_0_12_8)) l_0_12_9)))
 (= (- ?x1212 1.0) 0.0)))))
(assert
 (= (- (+ (- _a_1_ l_0_12_3) l_0_12_5) l_0_12_6) 0.0))
(assert
 (let ((?x1269 (+ (- (- (+ (- _a_2_ l_0_12_4) l_0_12_5) l_0_12_6) l_0_12_8) 1.0)))
 (= ?x1269 0.0)))
(assert
 (= (- (+ (- _a_3_ l_0_12_2) l_0_12_5) l_0_12_6) 0.0))
(assert
 (= (- (+ (- _a_4_ l_0_12_1) l_0_12_5) l_0_12_6) 0.0))
(assert
 (= (- (+ (- l_0_12_5) l_0_12_6) 1.0) 0.0))
(assert
 (>= l_0_12_1 0.0))
(assert
 (>= l_0_12_2 0.0))
(assert
 (>= l_0_12_3 0.0))
(assert
 (>= l_0_12_4 0.0))
(assert
 (>= l_0_12_5 0.0))
(assert
 (>= l_0_12_6 0.0))
(assert
 (>= l_0_12_7 0.0))
(assert
 (>= l_0_12_8 0.0))
(assert
 (>= l_0_12_9 0.0))
(assert
 (>= l_0_12_10 0.0))
(assert
 (>= l_0_12_11 0.0))
(assert
 (>= l_0_12_12 0.0))
(assert
 (>= l_0_12_13 0.0))
(assert
 (>= l_0_12_14 0.0))
(assert
 (>= l_0_12_15 0.0))
(assert
 (>= l_0_12_16 0.0))
(assert
 (>= l_0_12_17 0.0))
(assert
 (>= l_0_12_18 0.0))
(assert
 (>= l_0_12_19 0.0))
(assert
 (= (+ (- (- (+ (- l_0_13_1) l_0_13_5) l_0_13_6) l_0_13_8) 1.0) 0.0))
(assert
 (let ((?x1350 (- (- (+ (* (- 1.0) l_0_13_7) (* 1.0 l_0_13_8)) l_0_13_9) 1.0)))
 (= ?x1350 0.0)))
(assert
 (= (- (+ (- l_0_13_2) l_0_13_5) l_0_13_6) 0.0))
(assert
 (= (- (+ (- l_0_13_3) l_0_13_5) l_0_13_6) 0.0))
(assert
 (= (- (+ (- l_0_13_4) l_0_13_5) l_0_13_6) 0.0))
(assert
 (= (+ (- l_0_13_5) l_0_13_6) 0.0))
(assert
 (>= l_0_13_1 0.0))
(assert
 (>= l_0_13_2 0.0))
(assert
 (>= l_0_13_3 0.0))
(assert
 (>= l_0_13_4 0.0))
(assert
 (>= l_0_13_5 0.0))
(assert
 (>= l_0_13_6 0.0))
(assert
 (>= l_0_13_7 0.0))
(assert
 (>= l_0_13_8 0.0))
(assert
 (>= l_0_13_9 0.0))
(assert
 (= (+ (- (+ (- l_0_14_2) l_0_14_5) l_0_14_6) 1.0) 0.0))
(assert
 (let ((?x1422 (+ (- (- (- l_0_14_10) l_0_14_11) (* 1.0 l_0_14_7)) (* 1.0 l_0_14_8))))
 (= (- ?x1422 l_0_14_9) 0.0)))
(assert
 (= (- (- (+ (- l_0_14_1) l_0_14_5) l_0_14_6) l_0_14_8) 0.0))
(assert
 (= (- (+ (- l_0_14_3) l_0_14_5) l_0_14_6) 0.0))
(assert
 (= (- (+ (- l_0_14_4) l_0_14_5) l_0_14_6) 0.0))
(assert
 (= (+ (- l_0_14_5) l_0_14_6) 0.0))
(assert
 (>= l_0_14_1 0.0))
(assert
 (>= l_0_14_2 0.0))
(assert
 (>= l_0_14_3 0.0))
(assert
 (>= l_0_14_4 0.0))
(assert
 (>= l_0_14_5 0.0))
(assert
 (>= l_0_14_6 0.0))
(assert
 (>= l_0_14_7 0.0))
(assert
 (>= l_0_14_8 0.0))
(assert
 (>= l_0_14_9 0.0))
(assert
 (>= l_0_14_10 0.0))
(assert
 (>= l_0_14_11 0.0))
(assert
 (= (+ (- (+ (- l_0_15_3) l_0_15_5) l_0_15_6) 1.0) 0.0))
(assert
 (let ((?x1505 (- (- (- (- (- l_0_15_10) l_0_15_11) l_0_15_12) l_0_15_13) (* 1.0 l_0_15_7))))
 (= (+ (- (+ ?x1505 (* 1.0 l_0_15_8)) l_0_15_9) 1.0) 0.0)))
(assert
 (= (- (- (+ (- l_0_15_1) l_0_15_5) l_0_15_6) l_0_15_8) 0.0))
(assert
 (= (- (+ (- l_0_15_2) l_0_15_5) l_0_15_6) 0.0))
(assert
 (= (- (+ (- l_0_15_4) l_0_15_5) l_0_15_6) 0.0))
(assert
 (= (+ (- l_0_15_5) l_0_15_6) 0.0))
(assert
 (>= l_0_15_1 0.0))
(assert
 (>= l_0_15_2 0.0))
(assert
 (>= l_0_15_3 0.0))
(assert
 (>= l_0_15_4 0.0))
(assert
 (>= l_0_15_5 0.0))
(assert
 (>= l_0_15_6 0.0))
(assert
 (>= l_0_15_7 0.0))
(assert
 (>= l_0_15_8 0.0))
(assert
 (>= l_0_15_9 0.0))
(assert
 (>= l_0_15_10 0.0))
(assert
 (>= l_0_15_11 0.0))
(assert
 (>= l_0_15_12 0.0))
(assert
 (>= l_0_15_13 0.0))
(assert
 (= (+ (- (+ (- l_0_16_4) l_0_16_5) l_0_16_6) 1.0) 0.0))
(assert
 (let ((?x1598 (- (- (- (- (- l_0_16_10) l_0_16_11) l_0_16_12) l_0_16_13) l_0_16_14)))
 (let ((?x1603 (+ (- (- ?x1598 l_0_16_15) (* 1.0 l_0_16_7)) (* 1.0 l_0_16_8))))
 (= (- ?x1603 l_0_16_9) 0.0))))
(assert
 (= (- (- (+ (- l_0_16_1) l_0_16_5) l_0_16_6) l_0_16_8) 0.0))
(assert
 (= (- (+ (- l_0_16_2) l_0_16_5) l_0_16_6) 0.0))
(assert
 (= (- (+ (- l_0_16_3) l_0_16_5) l_0_16_6) 0.0))
(assert
 (= (+ (- l_0_16_5) l_0_16_6) 0.0))
(assert
 (>= l_0_16_1 0.0))
(assert
 (>= l_0_16_2 0.0))
(assert
 (>= l_0_16_3 0.0))
(assert
 (>= l_0_16_4 0.0))
(assert
 (>= l_0_16_5 0.0))
(assert
 (>= l_0_16_6 0.0))
(assert
 (>= l_0_16_7 0.0))
(assert
 (>= l_0_16_8 0.0))
(assert
 (>= l_0_16_9 0.0))
(assert
 (>= l_0_16_10 0.0))
(assert
 (>= l_0_16_11 0.0))
(assert
 (>= l_0_16_12 0.0))
(assert
 (>= l_0_16_13 0.0))
(assert
 (>= l_0_16_14 0.0))
(assert
 (>= l_0_16_15 0.0))
(assert
 (= (+ (+ (- l_0_17_5) l_0_17_6) 1.0) 0.0))
(assert
 (= (- (- (+ (- l_0_17_3) l_0_17_5) l_0_17_6) 1.0) 0.0))
(assert
 (let ((?x1709 (- (- (- (- (- l_0_17_10) l_0_17_11) l_0_17_12) l_0_17_13) l_0_17_14)))
 (let ((?x1714 (- (- (- (- ?x1709 l_0_17_15) l_0_17_16) l_0_17_17) (* 1.0 l_0_17_7))))
 (= (- (+ ?x1714 (* 1.0 l_0_17_8)) l_0_17_9) 0.0))))
(assert
 (= (- (- (+ (- l_0_17_2) l_0_17_5) l_0_17_6) 1.0) 0.0))
(assert
 (= (- (- (- (+ (- l_0_17_1) l_0_17_5) l_0_17_6) l_0_17_8) 1.0) 0.0))
(assert
 (= (- (- (+ (- l_0_17_4) l_0_17_5) l_0_17_6) 1.0) 0.0))
(assert
 (>= l_0_17_1 0.0))
(assert
 (>= l_0_17_2 0.0))
(assert
 (>= l_0_17_3 0.0))
(assert
 (>= l_0_17_4 0.0))
(assert
 (>= l_0_17_5 0.0))
(assert
 (>= l_0_17_6 0.0))
(assert
 (>= l_0_17_7 0.0))
(assert
 (>= l_0_17_8 0.0))
(assert
 (>= l_0_17_9 0.0))
(assert
 (>= l_0_17_10 0.0))
(assert
 (>= l_0_17_11 0.0))
(assert
 (>= l_0_17_12 0.0))
(assert
 (>= l_0_17_13 0.0))
(assert
 (>= l_0_17_14 0.0))
(assert
 (>= l_0_17_15 0.0))
(assert
 (>= l_0_17_16 0.0))
(assert
 (>= l_0_17_17 0.0))
(assert
 (= (+ (- (+ (- l_0_18_3) l_0_18_5) l_0_18_6) 1.0) 0.0))
(assert
 (let ((?x1826 (- (- (- (- (- l_0_18_10) l_0_18_11) l_0_18_12) l_0_18_13) l_0_18_14)))
 (let ((?x1831 (- (- (- (- (- ?x1826 l_0_18_15) l_0_18_16) l_0_18_17) l_0_18_18) l_0_18_19)))
 (let ((?x1836 (- (+ (- ?x1831 (* 1.0 l_0_18_7)) (* 1.0 l_0_18_8)) l_0_18_9)))
 (= ?x1836 0.0)))))
(assert
 (= (+ (- (+ (- l_0_18_2) l_0_18_5) l_0_18_6) 1.0) 0.0))
(assert
 (= (+ (- (- (+ (- l_0_18_1) l_0_18_5) l_0_18_6) l_0_18_8) 1.0) 0.0))
(assert
 (= (+ (- (+ (- l_0_18_4) l_0_18_5) l_0_18_6) 1.0) 0.0))
(assert
 (= (- (+ (- l_0_18_5) l_0_18_6) 1.0) 0.0))
(assert
 (>= l_0_18_1 0.0))
(assert
 (>= l_0_18_2 0.0))
(assert
 (>= l_0_18_3 0.0))
(assert
 (>= l_0_18_4 0.0))
(assert
 (>= l_0_18_5 0.0))
(assert
 (>= l_0_18_6 0.0))
(assert
 (>= l_0_18_7 0.0))
(assert
 (>= l_0_18_8 0.0))
(assert
 (>= l_0_18_9 0.0))
(assert
 (>= l_0_18_10 0.0))
(assert
 (>= l_0_18_11 0.0))
(assert
 (>= l_0_18_12 0.0))
(assert
 (>= l_0_18_13 0.0))
(assert
 (>= l_0_18_14 0.0))
(assert
 (>= l_0_18_15 0.0))
(assert
 (>= l_0_18_16 0.0))
(assert
 (>= l_0_18_17 0.0))
(assert
 (>= l_0_18_18 0.0))
(assert
 (>= l_0_18_19 0.0))
(assert
 (let ((?x1943 (+ (- (+ (* (- 1.0) l_0_19_7) (* 1.0 l_0_19_8)) l_0_19_9) 1.0)))
 (= ?x1943 0.0)))
(assert
 (= (- (+ (- l_0_19_1) l_0_19_5) l_0_19_6) 0.0))
(assert
 (= (- (- (+ (- l_0_19_2) l_0_19_5) l_0_19_6) l_0_19_8) 0.0))
(assert
 (= (- (+ (- l_0_19_3) l_0_19_5) l_0_19_6) 0.0))
(assert
 (= (- (+ (- l_0_19_4) l_0_19_5) l_0_19_6) 0.0))
(assert
 (= (+ (- l_0_19_5) l_0_19_6) 0.0))
(assert
 (>= l_0_19_1 0.0))
(assert
 (>= l_0_19_2 0.0))
(assert
 (>= l_0_19_3 0.0))
(assert
 (>= l_0_19_4 0.0))
(assert
 (>= l_0_19_5 0.0))
(assert
 (>= l_0_19_6 0.0))
(assert
 (>= l_0_19_7 0.0))
(assert
 (>= l_0_19_8 0.0))
(assert
 (>= l_0_19_9 0.0))
(assert
 (let ((?x2016 (+ (- (- (- l_0_20_10) l_0_20_11) (* 1.0 l_0_20_7)) (* 1.0 l_0_20_8))))
 (= (- ?x2016 l_0_20_9) 0.0)))
(assert
 (= (- (+ (- l_0_20_1) l_0_20_5) l_0_20_6) 0.0))
(assert
 (= (- (- (+ (- l_0_20_2) l_0_20_5) l_0_20_6) l_0_20_8) 0.0))
(assert
 (= (- (+ (- l_0_20_3) l_0_20_5) l_0_20_6) 0.0))
(assert
 (= (- (+ (- l_0_20_4) l_0_20_5) l_0_20_6) 0.0))
(assert
 (= (+ (- l_0_20_5) l_0_20_6) 0.0))
(assert
 (>= l_0_20_1 0.0))
(assert
 (>= l_0_20_2 0.0))
(assert
 (>= l_0_20_3 0.0))
(assert
 (>= l_0_20_4 0.0))
(assert
 (>= l_0_20_5 0.0))
(assert
 (>= l_0_20_6 0.0))
(assert
 (>= l_0_20_7 0.0))
(assert
 (>= l_0_20_8 0.0))
(assert
 (>= l_0_20_9 0.0))
(assert
 (>= l_0_20_10 0.0))
(assert
 (>= l_0_20_11 0.0))
(assert
 (let ((?x2098 (- (- (- (- (- l_0_21_10) l_0_21_11) l_0_21_12) l_0_21_13) (* 1.0 l_0_21_7))))
 (= (- (+ ?x2098 (* 1.0 l_0_21_8)) l_0_21_9) 0.0)))
(assert
 (= (- (+ (- l_0_21_1) l_0_21_5) l_0_21_6) 0.0))
(assert
 (= (- (- (+ (- l_0_21_2) l_0_21_5) l_0_21_6) l_0_21_8) 0.0))
(assert
 (= (- (+ (- l_0_21_3) l_0_21_5) l_0_21_6) 0.0))
(assert
 (= (- (+ (- l_0_21_4) l_0_21_5) l_0_21_6) 0.0))
(assert
 (= (+ (- l_0_21_5) l_0_21_6) 0.0))
(assert
 (>= l_0_21_1 0.0))
(assert
 (>= l_0_21_2 0.0))
(assert
 (>= l_0_21_3 0.0))
(assert
 (>= l_0_21_4 0.0))
(assert
 (>= l_0_21_5 0.0))
(assert
 (>= l_0_21_6 0.0))
(assert
 (>= l_0_21_7 0.0))
(assert
 (>= l_0_21_8 0.0))
(assert
 (>= l_0_21_9 0.0))
(assert
 (>= l_0_21_10 0.0))
(assert
 (>= l_0_21_11 0.0))
(assert
 (>= l_0_21_12 0.0))
(assert
 (>= l_0_21_13 0.0))
(assert
 (let ((?x2189 (- (- (- (- (- _a_5_ l_0_22_10) l_0_22_11) l_0_22_12) l_0_22_13) l_0_22_14)))
 (let ((?x2194 (+ (- (- ?x2189 l_0_22_15) (* 1.0 l_0_22_7)) (* 1.0 l_0_22_8))))
 (= (- ?x2194 l_0_22_9) 0.0))))
(assert
 (= (- (+ (- _a_6_ l_0_22_3) l_0_22_5) l_0_22_6) 0.0))
(assert
 (= (- (+ (- _a_7_ l_0_22_4) l_0_22_5) l_0_22_6) 0.0))
(assert
 (= (- (- (+ (- _a_8_ l_0_22_2) l_0_22_5) l_0_22_6) l_0_22_8) 0.0))
(assert
 (= (- (+ (- _a_9_ l_0_22_1) l_0_22_5) l_0_22_6) 0.0))
(assert
 (= (+ (- l_0_22_5) l_0_22_6) 0.0))
(assert
 (>= l_0_22_1 0.0))
(assert
 (>= l_0_22_2 0.0))
(assert
 (>= l_0_22_3 0.0))
(assert
 (>= l_0_22_4 0.0))
(assert
 (>= l_0_22_5 0.0))
(assert
 (>= l_0_22_6 0.0))
(assert
 (>= l_0_22_7 0.0))
(assert
 (>= l_0_22_8 0.0))
(assert
 (>= l_0_22_9 0.0))
(assert
 (>= l_0_22_10 0.0))
(assert
 (>= l_0_22_11 0.0))
(assert
 (>= l_0_22_12 0.0))
(assert
 (>= l_0_22_13 0.0))
(assert
 (>= l_0_22_14 0.0))
(assert
 (>= l_0_22_15 0.0))
(assert
 (= (+ (+ (- l_0_23_5) l_0_23_6) 1.0) 0.0))
(assert
 (let ((?x2300 (- (- (- (- (- _a_5_) l_0_23_10) l_0_23_11) l_0_23_12) l_0_23_13)))
 (let ((?x2306 (- (- (- (- (- ?x2300 l_0_23_14) l_0_23_15) l_0_23_16) l_0_23_17) (* 1.0 l_0_23_7))))
 (= (- (- (+ ?x2306 (* 1.0 l_0_23_8)) l_0_23_9) 1.0) 0.0))))
(assert
 (= (- (+ (- (- _a_6_) l_0_23_3) l_0_23_5) l_0_23_6) 0.0))
(assert
 (= (- (+ (- (- _a_7_) l_0_23_4) l_0_23_5) l_0_23_6) 0.0))
(assert
 (let ((?x2378 (- (- (+ (- (- _a_8_) l_0_23_2) l_0_23_5) l_0_23_6) l_0_23_8)))
 (= ?x2378 0.0)))
(assert
 (= (- (+ (- (- _a_9_) l_0_23_1) l_0_23_5) l_0_23_6) 0.0))
(assert
 (>= l_0_23_1 0.0))
(assert
 (>= l_0_23_2 0.0))
(assert
 (>= l_0_23_3 0.0))
(assert
 (>= l_0_23_4 0.0))
(assert
 (>= l_0_23_5 0.0))
(assert
 (>= l_0_23_6 0.0))
(assert
 (>= l_0_23_7 0.0))
(assert
 (>= l_0_23_8 0.0))
(assert
 (>= l_0_23_9 0.0))
(assert
 (>= l_0_23_10 0.0))
(assert
 (>= l_0_23_11 0.0))
(assert
 (>= l_0_23_12 0.0))
(assert
 (>= l_0_23_13 0.0))
(assert
 (>= l_0_23_14 0.0))
(assert
 (>= l_0_23_15 0.0))
(assert
 (>= l_0_23_16 0.0))
(assert
 (>= l_0_23_17 0.0))
(assert
 (let ((?x2424 (- (- (- (- (- _a_5_ l_0_24_10) l_0_24_11) l_0_24_12) l_0_24_13) l_0_24_14)))
 (let ((?x2429 (- (- (- (- (- ?x2424 l_0_24_15) l_0_24_16) l_0_24_17) l_0_24_18) l_0_24_19)))
 (let ((?x2434 (- (+ (- ?x2429 (* 1.0 l_0_24_7)) (* 1.0 l_0_24_8)) l_0_24_9)))
 (= (+ ?x2434 1.0) 0.0)))))
(assert
 (= (- (+ (- _a_6_ l_0_24_3) l_0_24_5) l_0_24_6) 0.0))
(assert
 (= (- (+ (- _a_7_ l_0_24_4) l_0_24_5) l_0_24_6) 0.0))
(assert
 (= (- (- (+ (- _a_8_ l_0_24_2) l_0_24_5) l_0_24_6) l_0_24_8) 0.0))
(assert
 (= (- (+ (- _a_9_ l_0_24_1) l_0_24_5) l_0_24_6) 0.0))
(assert
 (= (- (+ (- l_0_24_5) l_0_24_6) 1.0) 0.0))
(assert
 (>= l_0_24_1 0.0))
(assert
 (>= l_0_24_2 0.0))
(assert
 (>= l_0_24_3 0.0))
(assert
 (>= l_0_24_4 0.0))
(assert
 (>= l_0_24_5 0.0))
(assert
 (>= l_0_24_6 0.0))
(assert
 (>= l_0_24_7 0.0))
(assert
 (>= l_0_24_8 0.0))
(assert
 (>= l_0_24_9 0.0))
(assert
 (>= l_0_24_10 0.0))
(assert
 (>= l_0_24_11 0.0))
(assert
 (>= l_0_24_12 0.0))
(assert
 (>= l_0_24_13 0.0))
(assert
 (>= l_0_24_14 0.0))
(assert
 (>= l_0_24_15 0.0))
(assert
 (>= l_0_24_16 0.0))
(assert
 (>= l_0_24_17 0.0))
(assert
 (>= l_0_24_18 0.0))
(assert
 (>= l_0_24_19 0.0))
(assert
 (let ((?x2552 (+ (- (+ (* (- 1.0) l_0_25_7) (* 1.0 l_0_25_8)) l_0_25_9) 1.0)))
 (= ?x2552 0.0)))
(assert
 (= (- (+ (- l_0_25_1) l_0_25_5) l_0_25_6) 0.0))
(assert
 (= (- (+ (- l_0_25_2) l_0_25_5) l_0_25_6) 0.0))
(assert
 (= (- (+ (- l_0_25_3) l_0_25_5) l_0_25_6) 0.0))
(assert
 (= (- (- (+ (- l_0_25_4) l_0_25_5) l_0_25_6) l_0_25_8) 0.0))
(assert
 (= (+ (- l_0_25_5) l_0_25_6) 0.0))
(assert
 (>= l_0_25_1 0.0))
(assert
 (>= l_0_25_2 0.0))
(assert
 (>= l_0_25_3 0.0))
(assert
 (>= l_0_25_4 0.0))
(assert
 (>= l_0_25_5 0.0))
(assert
 (>= l_0_25_6 0.0))
(assert
 (>= l_0_25_7 0.0))
(assert
 (>= l_0_25_8 0.0))
(assert
 (>= l_0_25_9 0.0))
(assert
 (let ((?x2625 (+ (- (- (- l_0_26_10) l_0_26_11) (* 1.0 l_0_26_7)) (* 1.0 l_0_26_8))))
 (= (- ?x2625 l_0_26_9) 0.0)))
(assert
 (= (- (+ (- l_0_26_1) l_0_26_5) l_0_26_6) 0.0))
(assert
 (= (- (+ (- l_0_26_2) l_0_26_5) l_0_26_6) 0.0))
(assert
 (= (- (+ (- l_0_26_3) l_0_26_5) l_0_26_6) 0.0))
(assert
 (= (- (- (+ (- l_0_26_4) l_0_26_5) l_0_26_6) l_0_26_8) 0.0))
(assert
 (= (+ (- l_0_26_5) l_0_26_6) 0.0))
(assert
 (>= l_0_26_1 0.0))
(assert
 (>= l_0_26_2 0.0))
(assert
 (>= l_0_26_3 0.0))
(assert
 (>= l_0_26_4 0.0))
(assert
 (>= l_0_26_5 0.0))
(assert
 (>= l_0_26_6 0.0))
(assert
 (>= l_0_26_7 0.0))
(assert
 (>= l_0_26_8 0.0))
(assert
 (>= l_0_26_9 0.0))
(assert
 (>= l_0_26_10 0.0))
(assert
 (>= l_0_26_11 0.0))
(assert
 (let ((?x2707 (- (- (- (- (- l_0_27_10) l_0_27_11) l_0_27_12) l_0_27_13) (* 1.0 l_0_27_7))))
 (= (- (+ ?x2707 (* 1.0 l_0_27_8)) l_0_27_9) 0.0)))
(assert
 (= (- (+ (- l_0_27_1) l_0_27_5) l_0_27_6) 0.0))
(assert
 (= (- (+ (- l_0_27_2) l_0_27_5) l_0_27_6) 0.0))
(assert
 (= (- (+ (- l_0_27_3) l_0_27_5) l_0_27_6) 0.0))
(assert
 (= (- (- (+ (- l_0_27_4) l_0_27_5) l_0_27_6) l_0_27_8) 0.0))
(assert
 (= (+ (- l_0_27_5) l_0_27_6) 0.0))
(assert
 (>= l_0_27_1 0.0))
(assert
 (>= l_0_27_2 0.0))
(assert
 (>= l_0_27_3 0.0))
(assert
 (>= l_0_27_4 0.0))
(assert
 (>= l_0_27_5 0.0))
(assert
 (>= l_0_27_6 0.0))
(assert
 (>= l_0_27_7 0.0))
(assert
 (>= l_0_27_8 0.0))
(assert
 (>= l_0_27_9 0.0))
(assert
 (>= l_0_27_10 0.0))
(assert
 (>= l_0_27_11 0.0))
(assert
 (>= l_0_27_12 0.0))
(assert
 (>= l_0_27_13 0.0))
(assert
 (let ((?x2797 (- (- (- (- _a_10_ l_0_28_10) l_0_28_11) l_0_28_12) l_0_28_13)))
 (let ((?x2803 (+ (- (- (- ?x2797 l_0_28_14) l_0_28_15) (* 1.0 l_0_28_7)) (* 1.0 l_0_28_8))))
 (= (- ?x2803 l_0_28_9) 0.0))))
(assert
 (= (- (+ (- _a_11_ l_0_28_3) l_0_28_5) l_0_28_6) 0.0))
(assert
 (= (- (- (+ (- _a_12_ l_0_28_4) l_0_28_5) l_0_28_6) l_0_28_8) 0.0))
(assert
 (= (- (+ (- _a_13_ l_0_28_2) l_0_28_5) l_0_28_6) 0.0))
(assert
 (= (- (+ (- _a_14_ l_0_28_1) l_0_28_5) l_0_28_6) 0.0))
(assert
 (= (+ (- l_0_28_5) l_0_28_6) 0.0))
(assert
 (>= l_0_28_1 0.0))
(assert
 (>= l_0_28_2 0.0))
(assert
 (>= l_0_28_3 0.0))
(assert
 (>= l_0_28_4 0.0))
(assert
 (>= l_0_28_5 0.0))
(assert
 (>= l_0_28_6 0.0))
(assert
 (>= l_0_28_7 0.0))
(assert
 (>= l_0_28_8 0.0))
(assert
 (>= l_0_28_9 0.0))
(assert
 (>= l_0_28_10 0.0))
(assert
 (>= l_0_28_11 0.0))
(assert
 (>= l_0_28_12 0.0))
(assert
 (>= l_0_28_13 0.0))
(assert
 (>= l_0_28_14 0.0))
(assert
 (>= l_0_28_15 0.0))
(assert
 (= (+ (+ (- l_0_29_5) l_0_29_6) 1.0) 0.0))
(assert
 (let ((?x2909 (- (- (- (- (- _a_10_) l_0_29_10) l_0_29_11) l_0_29_12) l_0_29_13)))
 (let ((?x2915 (- (- (- (- (- ?x2909 l_0_29_14) l_0_29_15) l_0_29_16) l_0_29_17) (* 1.0 l_0_29_7))))
 (= (- (- (+ ?x2915 (* 1.0 l_0_29_8)) l_0_29_9) 1.0) 0.0))))
(assert
 (= (- (+ (- (- _a_11_) l_0_29_3) l_0_29_5) l_0_29_6) 0.0))
(assert
 (let ((?x2974 (- (- (+ (- (- _a_12_) l_0_29_4) l_0_29_5) l_0_29_6) l_0_29_8)))
 (= ?x2974 0.0)))
(assert
 (= (- (+ (- (- _a_13_) l_0_29_2) l_0_29_5) l_0_29_6) 0.0))
(assert
 (= (- (+ (- (- _a_14_) l_0_29_1) l_0_29_5) l_0_29_6) 0.0))
(assert
 (>= l_0_29_1 0.0))
(assert
 (>= l_0_29_2 0.0))
(assert
 (>= l_0_29_3 0.0))
(assert
 (>= l_0_29_4 0.0))
(assert
 (>= l_0_29_5 0.0))
(assert
 (>= l_0_29_6 0.0))
(assert
 (>= l_0_29_7 0.0))
(assert
 (>= l_0_29_8 0.0))
(assert
 (>= l_0_29_9 0.0))
(assert
 (>= l_0_29_10 0.0))
(assert
 (>= l_0_29_11 0.0))
(assert
 (>= l_0_29_12 0.0))
(assert
 (>= l_0_29_13 0.0))
(assert
 (>= l_0_29_14 0.0))
(assert
 (>= l_0_29_15 0.0))
(assert
 (>= l_0_29_16 0.0))
(assert
 (>= l_0_29_17 0.0))
(assert
 (let ((?x3032 (- (- (- (- _a_10_ l_0_30_10) l_0_30_11) l_0_30_12) l_0_30_13)))
 (let ((?x3037 (- (- (- (- (- ?x3032 l_0_30_14) l_0_30_15) l_0_30_16) l_0_30_17) l_0_30_18)))
 (let ((?x3042 (+ (- (- ?x3037 l_0_30_19) (* 1.0 l_0_30_7)) (* 1.0 l_0_30_8))))
 (= (+ (- ?x3042 l_0_30_9) 1.0) 0.0)))))
(assert
 (= (- (+ (- _a_11_ l_0_30_3) l_0_30_5) l_0_30_6) 0.0))
(assert
 (= (- (- (+ (- _a_12_ l_0_30_4) l_0_30_5) l_0_30_6) l_0_30_8) 0.0))
(assert
 (= (- (+ (- _a_13_ l_0_30_2) l_0_30_5) l_0_30_6) 0.0))
(assert
 (= (- (+ (- _a_14_ l_0_30_1) l_0_30_5) l_0_30_6) 0.0))
(assert
 (= (- (+ (- l_0_30_5) l_0_30_6) 1.0) 0.0))
(assert
 (>= l_0_30_1 0.0))
(assert
 (>= l_0_30_2 0.0))
(assert
 (>= l_0_30_3 0.0))
(assert
 (>= l_0_30_4 0.0))
(assert
 (>= l_0_30_5 0.0))
(assert
 (>= l_0_30_6 0.0))
(assert
 (>= l_0_30_7 0.0))
(assert
 (>= l_0_30_8 0.0))
(assert
 (>= l_0_30_9 0.0))
(assert
 (>= l_0_30_10 0.0))
(assert
 (>= l_0_30_11 0.0))
(assert
 (>= l_0_30_12 0.0))
(assert
 (>= l_0_30_13 0.0))
(assert
 (>= l_0_30_14 0.0))
(assert
 (>= l_0_30_15 0.0))
(assert
 (>= l_0_30_16 0.0))
(assert
 (>= l_0_30_17 0.0))
(assert
 (>= l_0_30_18 0.0))
(assert
 (>= l_0_30_19 0.0))
(check-sat)
(get-model)